c generated by sgen
p cnf 85 180
-2 -3 -4 0
-1 -3 -4 0
-1 -2 -4 0
-1 -2 -3 0
-6 -7 -8 0
-5 -7 -8 0
-5 -6 -8 0
-5 -6 -7 0
-10 -11 -12 0
-9 -11 -12 0
-9 -10 -12 0
-9 -10 -11 0
-14 -15 -16 0
-13 -15 -16 0
-13 -14 -16 0
-13 -14 -15 0
-18 -19 -20 0
-17 -19 -20 0
-17 -18 -20 0
-17 -18 -19 0
-22 -23 -24 0
-21 -23 -24 0
-21 -22 -24 0
-21 -22 -23 0
-26 -27 -28 0
-25 -27 -28 0
-25 -26 -28 0
-25 -26 -27 0
-30 -31 -32 0
-29 -31 -32 0
-29 -30 -32 0
-29 -30 -31 0
-34 -35 -36 0
-33 -35 -36 0
-33 -34 -36 0
-33 -34 -35 0
-38 -39 -40 0
-37 -39 -40 0
-37 -38 -40 0
-37 -38 -39 0
-42 -43 -44 0
-41 -43 -44 0
-41 -42 -44 0
-41 -42 -43 0
-46 -47 -48 0
-45 -47 -48 0
-45 -46 -48 0
-45 -46 -47 0
-50 -51 -52 0
-49 -51 -52 0
-49 -50 -52 0
-49 -50 -51 0
-54 -55 -56 0
-53 -55 -56 0
-53 -54 -56 0
-53 -54 -55 0
-58 -59 -60 0
-57 -59 -60 0
-57 -58 -60 0
-57 -58 -59 0
-62 -63 -64 0
-61 -63 -64 0
-61 -62 -64 0
-61 -62 -63 0
-66 -67 -68 0
-65 -67 -68 0
-65 -66 -68 0
-65 -66 -67 0
-70 -71 -72 0
-69 -71 -72 0
-69 -70 -72 0
-69 -70 -71 0
-74 -75 -76 0
-73 -75 -76 0
-73 -74 -76 0
-73 -74 -75 0
-78 -79 -80 0
-77 -79 -80 0
-77 -78 -80 0
-77 -78 -79 0
-81 -82 -83 0
-81 -82 -84 0
-81 -82 -85 0
-81 -83 -84 0
-81 -83 -85 0
-81 -84 -85 0
-82 -83 -84 0
-82 -83 -85 0
-82 -84 -85 0
-83 -84 -85 0
85 24 15 0
69 24 15 0
69 85 15 0
69 85 24 0
6 43 4 0
64 43 4 0
64 6 4 0
64 6 43 0
36 9 65 0
81 9 65 0
81 36 65 0
81 36 9 0
63 48 83 0
16 48 83 0
16 63 83 0
16 63 48 0
13 38 59 0
76 38 59 0
76 13 59 0
76 13 38 0
55 22 12 0
51 22 12 0
51 55 12 0
51 55 22 0
47 1 23 0
75 1 23 0
75 47 23 0
75 47 1 0
35 74 8 0
54 74 8 0
54 35 8 0
54 35 74 0
52 84 40 0
5 84 40 0
5 52 40 0
5 52 84 0
32 73 49 0
67 73 49 0
67 32 49 0
67 32 73 0
82 79 26 0
21 79 26 0
21 82 26 0
21 82 79 0
71 66 27 0
19 66 27 0
19 71 27 0
19 71 66 0
56 77 37 0
62 77 37 0
62 56 37 0
62 56 77 0
30 11 39 0
41 11 39 0
41 30 39 0
41 30 11 0
78 42 68 0
14 42 68 0
14 78 68 0
14 78 42 0
2 25 20 0
10 25 20 0
10 2 20 0
10 2 25 0
44 28 53 0
60 28 53 0
60 44 53 0
60 44 28 0
57 17 45 0
50 17 45 0
50 57 45 0
50 57 17 0
33 3 70 0
46 3 70 0
46 33 70 0
46 33 3 0
18 31 61 0
34 31 61 0
34 18 61 0
34 18 31 0
29 58 80 0
29 58 72 0
29 58 7 0
29 80 72 0
29 80 7 0
29 72 7 0
58 80 72 0
58 80 7 0
58 72 7 0
80 72 7 0
